letting n =  10
letting blocks =  [[1, 1], [1, 4], [1, 7], [2, 1], [2, 3], [2, 6], [2, 7], [3, 1], [3, 2], [3, 5], [3, 9], [4, 6], [4, 9], [4, 10], [5, 4], [5, 8], [6, 2], [6, 5], [6, 10], [7, 1], [7, 4], [7, 8], [8, 5], [8, 7], [8, 8], [8, 9], [9, 2], [9, 5], [9, 8], [9, 9], [10, 2], [10, 8]]
